4 
5  11 34 57 
6  12 27 42 57 
7  12 27 42 57 
8  12 27 42 57 
9  12 27 42 57 
10  12 27 42 57 
11  12 27 42 57 
12  12 27 42 57 
13  13 28 43 58 
14  10 25 40 54 
15  09 24 39 54 
16  09 24 39 54 
17  09 24 39 54 
18  12 27 46 
19  03 17 32 47 
20  02 17 32 47 
21  02 19 34 49 
22  04 18 33 48 
23  02 26 
0 
